c FILE /home/rafael/Documents/HappySet/MIHS/inputs/happygen/output/graph_d_regular_k4_p0.1_v100_20241127_084023.txt
c SOURCE This is a d-regular graph formed for the happy graph colouring problem.
c DESCRIPTION It was generated using the problem generator of Rhyd Lewis
c
c GRAPH STATS
c Seed                             = 1232980050
c Number of Nodes                  = 100
c Number of colours k              = 4
c Number of pre-assignments        = 10
c Degree of all vertices           = 6
c Density                          = 0.0606061
c 
c The degrees of nodes 1 to 100, respectively, are as follows 
c [6, 6, 6, 6, 6, 6, 6, 6, 6, 6, 6, 6, 6, 6, 6, 6, 6, 6, 6, 6, 6, 6, 6, 6, 6, 6, 
c  6, 6, 6, 6, 6, 6, 6, 6, 6, 6, 6, 6, 6, 6, 6, 6, 6, 6, 6, 6, 6, 6, 6, 6, 6, 
c  6, 6, 6, 6, 6, 6, 6, 6, 6, 6, 6, 6, 6, 6, 6, 6, 6, 6, 6, 6, 6, 6, 6, 6, 6, 
c  6, 6, 6, 6, 6, 6, 6, 6, 6, 6, 6, 6, 6, 6, 6, 6, 6, 6, 6, 6, 6, 6, 6, 6] 
c  
p edge 100 300 4
e 1 10
e 1 12
e 1 33
e 1 53
e 1 58
e 1 61
e 2 17
e 2 31
e 2 36
e 2 49
e 2 54
e 2 70
e 3 23
e 3 45
e 3 61
e 3 62
e 3 70
e 3 75
e 4 40
e 4 44
e 4 47
e 4 70
e 4 74
e 4 91
e 5 10
e 5 55
e 5 61
e 5 71
e 5 92
e 5 93
e 6 17
e 6 18
e 6 31
e 6 61
e 6 65
e 6 73
e 7 14
e 7 20
e 7 32
e 7 35
e 7 43
e 7 93
e 8 25
e 8 62
e 8 65
e 8 68
e 8 70
e 8 96
e 9 16
e 9 25
e 9 51
e 9 66
e 9 73
e 9 79
e 10 21
e 10 28
e 10 39
e 10 65
e 11 27
e 11 42
e 11 46
e 11 80
e 11 82
e 11 87
e 12 19
e 12 27
e 12 29
e 12 45
e 12 60
e 13 18
e 13 51
e 13 54
e 13 60
e 13 89
e 13 91
e 14 30
e 14 43
e 14 74
e 14 79
e 14 95
e 15 18
e 15 34
e 15 41
e 15 49
e 15 50
e 15 66
e 16 19
e 16 59
e 16 74
e 16 78
e 16 87
e 17 49
e 17 80
e 17 91
e 17 98
e 18 32
e 18 83
e 18 99
e 19 26
e 19 78
e 19 81
e 19 84
e 20 23
e 20 27
e 20 54
e 20 90
e 20 94
e 21 25
e 21 51
e 21 69
e 21 76
e 21 85
e 22 34
e 22 44
e 22 57
e 22 68
e 22 80
e 22 83
e 23 26
e 23 49
e 23 55
e 23 74
e 24 57
e 24 79
e 24 82
e 24 88
e 24 90
e 24 97
e 25 28
e 25 43
e 25 60
e 26 35
e 26 50
e 26 62
e 26 69
e 27 84
e 27 94
e 27 96
e 28 31
e 28 48
e 28 52
e 28 72
e 29 35
e 29 42
e 29 78
e 29 97
e 29 98
e 30 45
e 30 63
e 30 66
e 30 85
e 30 86
e 31 52
e 31 59
e 31 83
e 32 44
e 32 53
e 32 73
e 32 90
e 33 41
e 33 63
e 33 75
e 33 77
e 33 87
e 34 45
e 34 53
e 34 73
e 34 88
e 35 36
e 35 56
e 35 77
e 36 39
e 36 71
e 36 85
e 36 98
e 37 39
e 37 59
e 37 67
e 37 76
e 37 87
e 37 99
e 38 40
e 38 49
e 38 59
e 38 74
e 38 82
e 38 97
e 39 56
e 39 88
e 39 100
e 40 80
e 40 92
e 40 94
e 40 95
e 41 66
e 41 85
e 41 86
e 41 90
e 42 46
e 42 50
e 42 63
e 42 90
e 43 48
e 43 63
e 43 96
e 44 64
e 44 76
e 44 94
e 45 47
e 45 81
e 46 55
e 46 60
e 46 75
e 46 84
e 47 64
e 47 79
e 47 88
e 47 89
e 48 57
e 48 67
e 48 73
e 48 74
e 49 92
e 50 67
e 50 81
e 50 97
e 51 52
e 51 78
e 51 91
e 52 67
e 52 68
e 52 93
e 53 69
e 53 70
e 53 95
e 54 56
e 54 71
e 54 96
e 55 65
e 55 85
e 55 96
e 56 67
e 56 75
e 56 90
e 57 70
e 57 72
e 57 79
e 58 59
e 58 71
e 58 95
e 58 99
e 58 100
e 59 83
e 60 62
e 60 85
e 61 82
e 61 92
e 62 89
e 62 99
e 63 94
e 63 100
e 64 79
e 64 83
e 64 86
e 64 95
e 65 76
e 65 93
e 66 78
e 66 91
e 67 89
e 68 77
e 68 80
e 68 89
e 69 81
e 69 87
e 69 93
e 71 86
e 71 100
e 72 82
e 72 91
e 72 93
e 72 100
e 73 92
e 75 88
e 75 95
e 76 84
e 76 98
e 77 78
e 77 82
e 77 84
e 80 97
e 81 86
e 81 87
e 83 99
e 84 98
e 86 92
e 88 100
e 89 96
e 94 97
e 98 99
n 5 3
n 7 3
n 30 2
n 40 1
n 63 2
n 67 4
n 80 1
n 85 2
n 93 3
n 98 3
